problem_generation/data/GISP/train/er_n=60_m=1054_p=0.60_SET2_setparam=100.00_alpha=0.50_246.sol
objective value:                                 1265
x2                                                  1 	(obj:100)
x5                                                  1 	(obj:100)
x9                                                  1 	(obj:100)
x13                                                 1 	(obj:100)
x17                                                 1 	(obj:100)
x18                                                 1 	(obj:100)
x19                                                 1 	(obj:100)
x29                                                 1 	(obj:100)
x41                                                 1 	(obj:100)
x44                                                 1 	(obj:100)
x45                                                 1 	(obj:100)
x58                                                 1 	(obj:100)
x59                                                 1 	(obj:100)
y17_58                                              1 	(obj:-1)
y2_41                                               1 	(obj:-1)
y2_59                                               1 	(obj:-1)
y9_58                                               1 	(obj:-1)
y2_45                                               1 	(obj:-1)
y5_41                                               1 	(obj:-1)
y29_44                                              1 	(obj:-1)
y2_17                                               1 	(obj:-1)
y13_41                                              1 	(obj:-1)
y13_59                                              1 	(obj:-1)
y9_29                                               1 	(obj:-1)
y5_58                                               1 	(obj:-1)
y17_19                                              1 	(obj:-1)
y5_44                                               1 	(obj:-1)
y13_17                                              1 	(obj:-1)
y13_44                                              1 	(obj:-1)
y19_41                                              1 	(obj:-1)
y19_45                                              1 	(obj:-1)
y29_58                                              1 	(obj:-1)
y2_58                                               1 	(obj:-1)
y41_58                                              1 	(obj:-1)
y41_44                                              1 	(obj:-1)
y13_58                                              1 	(obj:-1)
y2_29                                               1 	(obj:-1)
y17_41                                              1 	(obj:-1)
y9_41                                               1 	(obj:-1)
y58_59                                              1 	(obj:-1)
y9_13                                               1 	(obj:-1)
y2_18                                               1 	(obj:-1)
y5_19                                               1 	(obj:-1)
y5_9                                                1 	(obj:-1)
y19_29                                              1 	(obj:-1)
y44_58                                              1 	(obj:-1)
y5_13                                               1 	(obj:-1)
y18_59                                              1 	(obj:-1)
